c nIsolatedPIs 0
c maxPI 11
p cnf 482 1414
c gate 12 2 -3 0
2 -12 0
-3 -12 0
-2 3 12 0
c gate 13 9 -12 0
9 -13 0
-12 -13 0
-9 12 13 0
c gate 14 8 -9 0
8 -14 0
-9 -14 0
-8 9 14 0
c gate 15 4 5 0
4 -15 0
5 -15 0
-4 -5 15 0
c gate 16 14 -15 0
14 -16 0
-15 -16 0
-14 15 16 0
c gate 17 -7 8 0
-7 -17 0
8 -17 0
7 -8 17 0
c gate 18 -7 9 0
-7 -18 0
9 -18 0
7 -9 18 0
c gate 19 7 -9 0
7 -19 0
-9 -19 0
-7 9 19 0
c gate 20 5 -19 0
5 -20 0
-19 -20 0
-5 19 20 0
c gate 21 -18 -20 0
-18 -21 0
-20 -21 0
18 20 21 0
c gate 22 -17 -21 0
-17 -22 0
-21 -22 0
17 21 22 0
c gate 23 -16 -22 0
-16 -23 0
-22 -23 0
16 22 23 0
c gate 24 -8 -9 0
-8 -24 0
-9 -24 0
8 9 24 0
c gate 25 5 24 0
5 -25 0
24 -25 0
-5 -24 25 0
c gate 26 4 7 0
4 -26 0
7 -26 0
-4 -7 26 0
c gate 27 1 26 0
1 -27 0
26 -27 0
-1 -26 27 0
c gate 28 25 27 0
25 -28 0
27 -28 0
-25 -27 28 0
c gate 29 23 -28 0
23 -29 0
-28 -29 0
-23 28 29 0
c gate 30 -7 29 0
-7 -30 0
29 -30 0
7 -29 30 0
c gate 31 7 -29 0
7 -31 0
-29 -31 0
-7 29 31 0
c gate 32 8 10 0
8 -32 0
10 -32 0
-8 -10 32 0
c gate 33 -8 -10 0
-8 -33 0
-10 -33 0
8 10 33 0
c gate 34 -32 -33 0
-32 -34 0
-33 -34 0
32 33 34 0
c gate 35 -6 8 0
-6 -35 0
8 -35 0
6 -8 35 0
c gate 36 -9 -35 0
-9 -36 0
-35 -36 0
9 35 36 0
c gate 37 34 -36 0
34 -37 0
-36 -37 0
-34 36 37 0
c gate 38 -31 37 0
-31 -38 0
37 -38 0
31 -37 38 0
c gate 39 -30 38 0
-30 -39 0
38 -39 0
30 -38 39 0
c gate 40 7 -10 0
7 -40 0
-10 -40 0
-7 10 40 0
c gate 41 -7 10 0
-7 -41 0
10 -41 0
7 -10 41 0
c gate 42 -40 -41 0
-40 -42 0
-41 -42 0
40 41 42 0
c gate 43 -6 -7 0
-6 -43 0
-7 -43 0
6 7 43 0
c gate 44 -8 -43 0
-8 -44 0
-43 -44 0
8 43 44 0
c gate 45 42 44 0
42 -45 0
44 -45 0
-42 -44 45 0
c gate 46 7 -8 0
7 -46 0
-8 -46 0
-7 8 46 0
c gate 47 -17 -46 0
-17 -47 0
-46 -47 0
17 46 47 0
c gate 48 6 -47 0
6 -48 0
-47 -48 0
-6 47 48 0
c gate 49 -6 -40 0
-6 -49 0
-40 -49 0
6 40 49 0
c gate 50 -48 -49 0
-48 -50 0
-49 -50 0
48 49 50 0
c gate 51 7 -34 0
7 -51 0
-34 -51 0
-7 34 51 0
c gate 52 -35 -51 0
-35 -52 0
-51 -52 0
35 51 52 0
c gate 53 50 -52 0
50 -53 0
-52 -53 0
-50 52 53 0
c gate 54 -45 -53 0
-45 -54 0
-53 -54 0
45 53 54 0
c gate 55 -29 54 0
-29 -55 0
54 -55 0
29 -54 55 0
c gate 56 8 -50 0
8 -56 0
-50 -56 0
-8 50 56 0
c gate 57 29 -56 0
29 -57 0
-56 -57 0
-29 56 57 0
c gate 58 9 -57 0
9 -58 0
-57 -58 0
-9 57 58 0
c gate 59 -55 58 0
-55 -59 0
58 -59 0
55 -58 59 0
c gate 60 17 -41 0
17 -60 0
-41 -60 0
-17 41 60 0
c gate 61 -51 -60 0
-51 -61 0
-60 -61 0
51 60 61 0
c gate 62 6 -9 0
6 -62 0
-9 -62 0
-6 9 62 0
c gate 63 -61 62 0
-61 -63 0
62 -63 0
61 -62 63 0
c gate 64 -8 9 0
-8 -64 0
9 -64 0
8 -9 64 0
c gate 65 -10 43 0
-10 -65 0
43 -65 0
10 -43 65 0
c gate 66 64 65 0
64 -66 0
65 -66 0
-64 -65 66 0
c gate 67 -63 -66 0
-63 -67 0
-66 -67 0
63 66 67 0
c gate 68 -59 67 0
-59 -68 0
67 -68 0
59 -67 68 0
c gate 69 -39 68 0
-39 -69 0
68 -69 0
39 -68 69 0
c gate 70 -3 69 0
-3 -70 0
69 -70 0
3 -69 70 0
c gate 71 13 -70 0
13 -71 0
-70 -71 0
-13 70 71 0
c gate 72 -29 69 0
-29 -72 0
69 -72 0
29 -69 72 0
c gate 73 -3 9 0
-3 -73 0
9 -73 0
3 -9 73 0
c gate 74 72 73 0
72 -74 0
73 -74 0
-72 -73 74 0
c gate 75 29 -69 0
29 -75 0
-69 -75 0
-29 69 75 0
c gate 76 -9 75 0
-9 -76 0
75 -76 0
9 -75 76 0
c gate 77 -74 -76 0
-74 -77 0
-76 -77 0
74 76 77 0
c gate 78 -7 -77 0
-7 -78 0
-77 -78 0
7 77 78 0
c gate 79 -3 -9 0
-3 -79 0
-9 -79 0
3 9 79 0
c gate 80 75 79 0
75 -80 0
79 -80 0
-75 -79 80 0
c gate 81 -78 -80 0
-78 -81 0
-80 -81 0
78 80 81 0
c gate 82 -2 -81 0
-2 -82 0
-81 -82 0
2 81 82 0
c gate 83 -2 -7 0
-2 -83 0
-7 -83 0
2 7 83 0
c gate 84 -9 -69 0
-9 -84 0
-69 -84 0
9 69 84 0
c gate 85 3 84 0
3 -85 0
84 -85 0
-3 -84 85 0
c gate 86 2 -18 0
2 -86 0
-18 -86 0
-2 18 86 0
c gate 87 70 -86 0
70 -87 0
-86 -87 0
-70 86 87 0
c gate 88 -85 -87 0
-85 -88 0
-87 -88 0
85 87 88 0
c gate 89 -83 -88 0
-83 -89 0
-88 -89 0
83 88 89 0
c gate 90 -82 -89 0
-82 -90 0
-89 -90 0
82 89 90 0
c gate 91 -71 90 0
-71 -91 0
90 -91 0
71 -90 91 0
c gate 92 2 9 0
2 -92 0
9 -92 0
-2 -9 92 0
c gate 93 -2 -9 0
-2 -93 0
-9 -93 0
2 9 93 0
c gate 94 -92 -93 0
-92 -94 0
-93 -94 0
92 93 94 0
c gate 95 9 10 0
9 -95 0
10 -95 0
-9 -10 95 0
c gate 96 8 -95 0
8 -96 0
-95 -96 0
-8 95 96 0
c gate 97 94 -96 0
94 -97 0
-96 -97 0
-94 96 97 0
c gate 98 3 -97 0
3 -98 0
-97 -98 0
-3 97 98 0
c gate 99 3 -10 0
3 -99 0
-10 -99 0
-3 10 99 0
c gate 100 9 99 0
9 -100 0
99 -100 0
-9 -99 100 0
c gate 101 -3 10 0
-3 -101 0
10 -101 0
3 -10 101 0
c gate 102 -2 -101 0
-2 -102 0
-101 -102 0
2 101 102 0
c gate 103 -100 102 0
-100 -103 0
102 -103 0
100 -102 103 0
c gate 104 -8 -92 0
-8 -104 0
-92 -104 0
8 92 104 0
c gate 105 -12 104 0
-12 -105 0
104 -105 0
12 -104 105 0
c gate 106 -103 105 0
-103 -106 0
105 -106 0
103 -105 106 0
c gate 107 32 -94 0
32 -107 0
-94 -107 0
-32 94 107 0
c gate 108 -2 -3 0
-2 -108 0
-3 -108 0
2 3 108 0
c gate 109 8 9 0
8 -109 0
9 -109 0
-8 -9 109 0
c gate 110 108 109 0
108 -110 0
109 -110 0
-108 -109 110 0
c gate 111 -42 110 0
-42 -111 0
110 -111 0
42 -110 111 0
c gate 112 -107 -111 0
-107 -112 0
-111 -112 0
107 111 112 0
c gate 113 -106 112 0
-106 -113 0
112 -113 0
106 -112 113 0
c gate 114 -98 113 0
-98 -114 0
113 -114 0
98 -113 114 0
c gate 115 2 11 0
2 -115 0
11 -115 0
-2 -11 115 0
c gate 116 -2 -11 0
-2 -116 0
-11 -116 0
2 11 116 0
c gate 117 -115 -116 0
-115 -117 0
-116 -117 0
115 116 117 0
c gate 118 -3 -113 0
-3 -118 0
-113 -118 0
3 113 118 0
c gate 119 3 114 0
3 -119 0
114 -119 0
-3 -114 119 0
c gate 120 -118 -119 0
-118 -120 0
-119 -120 0
118 119 120 0
c gate 121 117 -120 0
117 -121 0
-120 -121 0
-117 120 121 0
c gate 122 -11 114 0
-11 -122 0
114 -122 0
11 -114 122 0
c gate 123 2 -118 0
2 -123 0
-118 -123 0
-2 118 123 0
c gate 124 -122 123 0
-122 -124 0
123 -124 0
122 -123 124 0
c gate 125 -121 -124 0
-121 -125 0
-124 -125 0
121 124 125 0
c gate 126 11 125 0
11 -126 0
125 -126 0
-11 -125 126 0
c gate 127 -72 -75 0
-72 -127 0
-75 -127 0
72 75 127 0
c gate 128 -11 108 0
-11 -128 0
108 -128 0
11 -108 128 0
c gate 129 114 128 0
114 -129 0
128 -129 0
-114 -128 129 0
c gate 130 -127 129 0
-127 -130 0
129 -130 0
127 -129 130 0
c gate 131 -113 128 0
-113 -131 0
128 -131 0
113 -128 131 0
c gate 132 -69 131 0
-69 -132 0
131 -132 0
69 -131 132 0
c gate 133 125 -132 0
125 -133 0
-132 -133 0
-125 132 133 0
c gate 134 -130 133 0
-130 -134 0
133 -134 0
130 -133 134 0
c gate 135 -11 -134 0
-11 -135 0
-134 -135 0
11 134 135 0
c gate 136 -126 -135 0
-126 -136 0
-135 -136 0
126 135 136 0
c gate 137 -9 11 0
-9 -137 0
11 -137 0
9 -11 137 0
c gate 138 -10 69 0
-10 -138 0
69 -138 0
10 -69 138 0
c gate 139 9 -11 0
9 -139 0
-11 -139 0
-9 11 139 0
c gate 140 -138 139 0
-138 -140 0
139 -140 0
138 -139 140 0
c gate 141 127 140 0
127 -141 0
140 -141 0
-127 -140 141 0
c gate 142 11 29 0
11 -142 0
29 -142 0
-11 -29 142 0
c gate 143 -10 142 0
-10 -143 0
142 -143 0
10 -142 143 0
c gate 144 -11 -29 0
-11 -144 0
-29 -144 0
11 29 144 0
c gate 145 -142 -144 0
-142 -145 0
-144 -145 0
142 144 145 0
c gate 146 10 145 0
10 -146 0
145 -146 0
-10 -145 146 0
c gate 147 -143 -146 0
-143 -147 0
-146 -147 0
143 146 147 0
c gate 148 69 -147 0
69 -148 0
-147 -148 0
-69 147 148 0
c gate 149 -9 148 0
-9 -149 0
148 -149 0
9 -148 149 0
c gate 150 -8 -143 0
-8 -150 0
-143 -150 0
8 143 150 0
c gate 151 -149 150 0
-149 -151 0
150 -151 0
149 -150 151 0
c gate 152 -141 151 0
-141 -152 0
151 -152 0
141 -151 152 0
c gate 153 -127 146 0
-127 -153 0
146 -153 0
127 -146 153 0
c gate 154 9 -153 0
9 -154 0
-153 -154 0
-9 153 154 0
c gate 155 10 11 0
10 -155 0
11 -155 0
-10 -11 155 0
c gate 156 -69 155 0
-69 -156 0
155 -156 0
69 -155 156 0
c gate 157 -10 -145 0
-10 -157 0
-145 -157 0
10 145 157 0
c gate 158 -9 -157 0
-9 -158 0
-157 -158 0
9 157 158 0
c gate 159 -156 158 0
-156 -159 0
158 -159 0
156 -158 159 0
c gate 160 -148 159 0
-148 -160 0
159 -160 0
148 -159 160 0
c gate 161 -154 -160 0
-154 -161 0
-160 -161 0
154 160 161 0
c gate 162 -10 -11 0
-10 -162 0
-11 -162 0
10 11 162 0
c gate 163 127 162 0
127 -163 0
162 -163 0
-127 -162 163 0
c gate 164 9 11 0
9 -164 0
11 -164 0
-9 -11 164 0
c gate 165 10 69 0
10 -165 0
69 -165 0
-10 -69 165 0
c gate 166 164 -165 0
164 -166 0
-165 -166 0
-164 165 166 0
c gate 167 8 -166 0
8 -167 0
-166 -167 0
-8 166 167 0
c gate 168 -163 167 0
-163 -168 0
167 -168 0
163 -167 168 0
c gate 169 -161 168 0
-161 -169 0
168 -169 0
161 -168 169 0
c gate 170 -152 -169 0
-152 -170 0
-169 -170 0
152 169 170 0
c gate 171 9 69 0
9 -171 0
69 -171 0
-9 -69 171 0
c gate 172 -84 -171 0
-84 -172 0
-171 -172 0
84 171 172 0
c gate 173 10 -11 0
10 -173 0
-11 -173 0
-10 11 173 0
c gate 174 8 -173 0
8 -174 0
-173 -174 0
-8 173 174 0
c gate 175 -155 -162 0
-155 -175 0
-162 -175 0
155 162 175 0
c gate 176 -8 175 0
-8 -176 0
175 -176 0
8 -175 176 0
c gate 177 -174 -176 0
-174 -177 0
-176 -177 0
174 176 177 0
c gate 178 -172 177 0
-172 -178 0
177 -178 0
172 -177 178 0
c gate 179 64 156 0
64 -179 0
156 -179 0
-64 -156 179 0
c gate 180 -178 -179 0
-178 -180 0
-179 -180 0
178 179 180 0
c gate 181 -170 180 0
-170 -181 0
180 -181 0
170 -180 181 0
c gate 182 -29 181 0
-29 -182 0
181 -182 0
29 -181 182 0
c gate 183 131 138 0
131 -183 0
138 -183 0
-131 -138 183 0
c gate 184 108 162 0
108 -184 0
162 -184 0
-108 -162 184 0
c gate 185 -183 184 0
-183 -185 0
184 -185 0
183 -184 185 0
c gate 186 134 185 0
134 -186 0
185 -186 0
-134 -185 186 0
c gate 187 -134 -185 0
-134 -187 0
-185 -187 0
134 185 187 0
c gate 188 -186 -187 0
-186 -188 0
-187 -188 0
186 187 188 0
c gate 189 29 -181 0
29 -189 0
-181 -189 0
-29 181 189 0
c gate 190 188 -189 0
188 -190 0
-189 -190 0
-188 189 190 0
c gate 191 -182 190 0
-182 -191 0
190 -191 0
182 -190 191 0
c gate 192 182 -188 0
182 -192 0
-188 -192 0
-182 188 192 0
c gate 193 -181 186 0
-181 -193 0
186 -193 0
181 -186 193 0
c gate 194 108 -193 0
108 -194 0
-193 -194 0
-108 193 194 0
c gate 195 -192 194 0
-192 -195 0
194 -195 0
192 -194 195 0
c gate 196 -191 195 0
-191 -196 0
195 -196 0
191 -195 196 0
c gate 197 -137 196 0
-137 -197 0
196 -197 0
137 -196 197 0
c gate 198 -136 -197 0
-136 -198 0
-197 -198 0
136 197 198 0
c gate 199 114 198 0
114 -199 0
198 -199 0
-114 -198 199 0
c gate 200 11 -196 0
11 -200 0
-196 -200 0
-11 196 200 0
c gate 201 -11 196 0
-11 -201 0
196 -201 0
11 -196 201 0
c gate 202 -200 -201 0
-200 -202 0
-201 -202 0
200 201 202 0
c gate 203 9 136 0
9 -203 0
136 -203 0
-9 -136 203 0
c gate 204 -202 203 0
-202 -204 0
203 -204 0
202 -203 204 0
c gate 205 -11 -114 0
-11 -205 0
-114 -205 0
11 114 205 0
c gate 206 9 205 0
9 -206 0
205 -206 0
-9 -205 206 0
c gate 207 -198 206 0
-198 -207 0
206 -207 0
198 -206 207 0
c gate 208 -204 207 0
-204 -208 0
207 -208 0
204 -207 208 0
c gate 209 -199 -208 0
-199 -209 0
-208 -209 0
199 208 209 0
c gate 210 91 -209 0
91 -210 0
-209 -210 0
-91 209 210 0
c gate 211 -9 134 0
-9 -211 0
134 -211 0
9 -134 211 0
c gate 212 202 211 0
202 -212 0
211 -212 0
-202 -211 212 0
c gate 213 -204 -212 0
-204 -213 0
-212 -213 0
204 212 213 0
c gate 214 -91 114 0
-91 -214 0
114 -214 0
91 -114 214 0
c gate 215 -213 214 0
-213 -215 0
214 -215 0
213 -214 215 0
c gate 216 -91 -114 0
-91 -216 0
-114 -216 0
91 114 216 0
c gate 217 -196 216 0
-196 -217 0
216 -217 0
196 -216 217 0
c gate 218 91 114 0
91 -218 0
114 -218 0
-91 -114 218 0
c gate 219 196 218 0
196 -219 0
218 -219 0
-196 -218 219 0
c gate 220 -217 -219 0
-217 -220 0
-219 -220 0
217 219 220 0
c gate 221 9 -220 0
9 -221 0
-220 -221 0
-9 220 221 0
c gate 222 -9 -218 0
-9 -222 0
-218 -222 0
9 218 222 0
c gate 223 -216 222 0
-216 -223 0
222 -223 0
216 -222 223 0
c gate 224 -196 223 0
-196 -224 0
223 -224 0
196 -223 224 0
c gate 225 -221 -224 0
-221 -225 0
-224 -225 0
221 224 225 0
c gate 226 11 -225 0
11 -226 0
-225 -226 0
-11 225 226 0
c gate 227 114 -201 0
114 -227 0
-201 -227 0
-114 201 227 0
c gate 228 9 -91 0
9 -228 0
-91 -228 0
-9 91 228 0
c gate 229 -9 90 0
-9 -229 0
90 -229 0
9 -90 229 0
c gate 230 -228 -229 0
-228 -230 0
-229 -230 0
228 229 230 0
c gate 231 -205 230 0
-205 -231 0
230 -231 0
205 -230 231 0
c gate 232 -227 231 0
-227 -232 0
231 -232 0
227 -231 232 0
c gate 233 -218 -230 0
-218 -233 0
-230 -233 0
218 230 233 0
c gate 234 202 233 0
202 -234 0
233 -234 0
-202 -233 234 0
c gate 235 -9 -11 0
-9 -235 0
-11 -235 0
9 11 235 0
c gate 236 217 235 0
217 -236 0
235 -236 0
-217 -235 236 0
c gate 237 -234 -236 0
-234 -237 0
-236 -237 0
234 236 237 0
c gate 238 -232 237 0
-232 -238 0
237 -238 0
232 -237 238 0
c gate 239 -226 238 0
-226 -239 0
238 -239 0
226 -238 239 0
c gate 240 -215 239 0
-215 -240 0
239 -240 0
215 -239 240 0
c gate 241 -210 240 0
-210 -241 0
240 -241 0
210 -240 241 0
c gate 242 -23 114 0
-23 -242 0
114 -242 0
23 -114 242 0
c gate 243 128 -242 0
128 -243 0
-242 -243 0
-128 242 243 0
c gate 244 125 -243 0
125 -244 0
-243 -244 0
-125 243 244 0
c gate 245 -184 -244 0
-184 -245 0
-244 -245 0
184 244 245 0
c gate 246 -95 -137 0
-95 -246 0
-137 -246 0
95 137 246 0
c gate 247 -23 -246 0
-23 -247 0
-246 -247 0
23 246 247 0
c gate 248 23 162 0
23 -248 0
162 -248 0
-23 -162 248 0
c gate 249 8 -248 0
8 -249 0
-248 -249 0
-8 248 249 0
c gate 250 -247 249 0
-247 -250 0
249 -250 0
247 -249 250 0
c gate 251 -11 23 0
-11 -251 0
23 -251 0
11 -23 251 0
c gate 252 -21 -139 0
-21 -252 0
-139 -252 0
21 139 252 0
c gate 253 -8 -252 0
-8 -253 0
-252 -253 0
8 252 253 0
c gate 254 -251 253 0
-251 -254 0
253 -254 0
251 -253 254 0
c gate 255 -155 -254 0
-155 -255 0
-254 -255 0
155 254 255 0
c gate 256 -250 255 0
-250 -256 0
255 -256 0
250 -255 256 0
c gate 257 -23 256 0
-23 -257 0
256 -257 0
23 -256 257 0
c gate 258 245 257 0
245 -258 0
257 -258 0
-245 -257 258 0
c gate 259 23 -256 0
23 -259 0
-256 -259 0
-23 256 259 0
c gate 260 -257 -259 0
-257 -260 0
-259 -260 0
257 259 260 0
c gate 261 -245 260 0
-245 -261 0
260 -261 0
245 -260 261 0
c gate 262 108 -261 0
108 -262 0
-261 -262 0
-108 261 262 0
c gate 263 -258 262 0
-258 -263 0
262 -263 0
258 -262 263 0
c gate 264 9 12 0
9 -264 0
12 -264 0
-9 -12 264 0
c gate 265 -263 -264 0
-263 -265 0
-264 -265 0
263 264 265 0
c gate 266 205 -265 0
205 -266 0
-265 -266 0
-205 265 266 0
c gate 267 13 -126 0
13 -267 0
-126 -267 0
-13 126 267 0
c gate 268 114 -267 0
114 -268 0
-267 -268 0
-114 267 268 0
c gate 269 -263 268 0
-263 -269 0
268 -269 0
263 -268 269 0
c gate 270 -266 -269 0
-266 -270 0
-269 -270 0
266 269 270 0
c gate 271 241 270 0
241 -271 0
270 -271 0
-241 -270 271 0
c gate 272 -241 -270 0
-241 -272 0
-270 -272 0
241 270 272 0
c gate 273 196 -263 0
196 -273 0
-263 -273 0
-196 263 273 0
c gate 274 -196 263 0
-196 -274 0
263 -274 0
196 -263 274 0
c gate 275 -4 -9 0
-4 -275 0
-9 -275 0
4 9 275 0
c gate 276 6 275 0
6 -276 0
275 -276 0
-6 -275 276 0
c gate 277 5 6 0
5 -277 0
6 -277 0
-5 -6 277 0
c gate 278 -275 -277 0
-275 -278 0
-277 -278 0
275 277 278 0
c gate 279 8 -278 0
8 -279 0
-278 -279 0
-8 278 279 0
c gate 280 -276 279 0
-276 -280 0
279 -280 0
276 -279 280 0
c gate 281 -5 -6 0
-5 -281 0
-6 -281 0
5 6 281 0
c gate 282 14 -281 0
14 -282 0
-281 -282 0
-14 281 282 0
c gate 283 -280 282 0
-280 -283 0
282 -283 0
280 -282 283 0
c gate 284 -5 109 0
-5 -284 0
109 -284 0
5 -109 284 0
c gate 285 -4 -5 0
-4 -285 0
-5 -285 0
4 5 285 0
c gate 286 -15 -285 0
-15 -286 0
-285 -286 0
15 285 286 0
c gate 287 24 286 0
24 -287 0
286 -287 0
-24 -286 287 0
c gate 288 -284 -287 0
-284 -288 0
-287 -288 0
284 287 288 0
c gate 289 -1 -288 0
-1 -289 0
-288 -289 0
1 288 289 0
c gate 290 -25 -284 0
-25 -290 0
-284 -290 0
25 284 290 0
c gate 291 1 -290 0
1 -291 0
-290 -291 0
-1 290 291 0
c gate 292 6 -8 0
6 -292 0
-8 -292 0
-6 8 292 0
c gate 293 -35 -292 0
-35 -293 0
-292 -293 0
35 292 293 0
c gate 294 5 9 0
5 -294 0
9 -294 0
-5 -9 294 0
c gate 295 -293 294 0
-293 -295 0
294 -295 0
293 -294 295 0
c gate 296 -291 -295 0
-291 -296 0
-295 -296 0
291 295 296 0
c gate 297 -289 296 0
-289 -297 0
296 -297 0
289 -296 297 0
c gate 298 -283 297 0
-283 -298 0
297 -298 0
283 -297 298 0
c gate 299 7 -298 0
7 -299 0
-298 -299 0
-7 298 299 0
c gate 300 4 299 0
4 -300 0
299 -300 0
-4 -299 300 0
c gate 301 -11 24 0
-11 -301 0
24 -301 0
11 -24 301 0
c gate 302 -4 -299 0
-4 -302 0
-299 -302 0
4 299 302 0
c gate 303 301 -302 0
301 -303 0
-302 -303 0
-301 302 303 0
c gate 304 -300 303 0
-300 -304 0
303 -304 0
300 -303 304 0
c gate 305 9 -47 0
9 -305 0
-47 -305 0
-9 47 305 0
c gate 306 -11 -24 0
-11 -306 0
-24 -306 0
11 24 306 0
c gate 307 -305 306 0
-305 -307 0
306 -307 0
305 -306 307 0
c gate 308 -298 307 0
-298 -308 0
307 -308 0
298 -307 308 0
c gate 309 -8 -277 0
-8 -309 0
-277 -309 0
8 277 309 0
c gate 310 -25 309 0
-25 -310 0
309 -310 0
25 -309 310 0
c gate 311 -280 -310 0
-280 -311 0
-310 -311 0
280 310 311 0
c gate 312 139 -311 0
139 -312 0
-311 -312 0
-139 311 312 0
c gate 313 -137 -312 0
-137 -313 0
-312 -313 0
137 312 313 0
c gate 314 -47 -313 0
-47 -314 0
-313 -314 0
47 313 314 0
c gate 315 11 47 0
11 -315 0
47 -315 0
-11 -47 315 0
c gate 316 -14 -64 0
-14 -316 0
-64 -316 0
14 64 316 0
c gate 317 315 316 0
315 -317 0
316 -317 0
-315 -316 317 0
c gate 318 -314 -317 0
-314 -318 0
-317 -318 0
314 317 318 0
c gate 319 -308 318 0
-308 -319 0
318 -319 0
308 -318 319 0
c gate 320 -304 319 0
-304 -320 0
319 -320 0
304 -319 320 0
c gate 321 -3 -320 0
-3 -321 0
-320 -321 0
3 320 321 0
c gate 322 -11 -321 0
-11 -322 0
-321 -322 0
11 321 322 0
c gate 323 11 321 0
11 -323 0
321 -323 0
-11 -321 323 0
c gate 324 8 12 0
8 -324 0
12 -324 0
-8 -12 324 0
c gate 325 -3 -324 0
-3 -325 0
-324 -325 0
3 324 325 0
c gate 326 9 -325 0
9 -326 0
-325 -326 0
-9 325 326 0
c gate 327 -35 -48 0
-35 -327 0
-48 -327 0
35 48 327 0
c gate 328 108 -327 0
108 -328 0
-327 -328 0
-108 327 328 0
c gate 329 -326 -328 0
-326 -329 0
-328 -329 0
326 328 329 0
c gate 330 -3 -329 0
-3 -330 0
-329 -330 0
3 329 330 0
c gate 331 -2 10 0
-2 -331 0
10 -331 0
2 -10 331 0
c gate 332 2 -10 0
2 -332 0
-10 -332 0
-2 10 332 0
c gate 333 -331 -332 0
-331 -333 0
-332 -333 0
331 332 333 0
c gate 334 -330 333 0
-330 -334 0
333 -334 0
330 -333 334 0
c gate 335 -323 334 0
-323 -335 0
334 -335 0
323 -334 335 0
c gate 336 -322 335 0
-322 -336 0
335 -336 0
322 -335 336 0
c gate 337 -10 329 0
-10 -337 0
329 -337 0
10 -329 337 0
c gate 338 -115 -337 0
-115 -338 0
-337 -338 0
115 337 338 0
c gate 339 2 -326 0
2 -339 0
-326 -339 0
-2 326 339 0
c gate 340 -11 -339 0
-11 -340 0
-339 -340 0
11 339 340 0
c gate 341 338 -340 0
338 -341 0
-340 -341 0
-338 340 341 0
c gate 342 320 -341 0
320 -342 0
-341 -342 0
-320 341 342 0
c gate 343 155 339 0
155 -343 0
339 -343 0
-155 -339 343 0
c gate 344 -10 -117 0
-10 -344 0
-117 -344 0
10 117 344 0
c gate 345 338 344 0
338 -345 0
344 -345 0
-338 -344 345 0
c gate 346 -343 -345 0
-343 -346 0
-345 -346 0
343 345 346 0
c gate 347 -320 346 0
-320 -347 0
346 -347 0
320 -346 347 0
c gate 348 -3 -347 0
-3 -348 0
-347 -348 0
3 347 348 0
c gate 349 -342 348 0
-342 -349 0
348 -349 0
342 -348 349 0
c gate 350 -2 11 0
-2 -350 0
11 -350 0
2 -11 350 0
c gate 351 -101 -350 0
-101 -351 0
-350 -351 0
101 350 351 0
c gate 352 175 351 0
175 -352 0
351 -352 0
-175 -351 352 0
c gate 353 -329 352 0
-329 -353 0
352 -353 0
329 -352 353 0
c gate 354 -137 -330 0
-137 -354 0
-330 -354 0
137 330 354 0
c gate 355 -3 11 0
-3 -355 0
11 -355 0
3 -11 355 0
c gate 356 -333 -355 0
-333 -356 0
-355 -356 0
333 355 356 0
c gate 357 -354 356 0
-354 -357 0
356 -357 0
354 -356 357 0
c gate 358 -353 -357 0
-353 -358 0
-357 -358 0
353 357 358 0
c gate 359 -349 358 0
-349 -359 0
358 -359 0
349 -358 359 0
c gate 360 -336 359 0
-336 -360 0
359 -360 0
336 -359 360 0
c gate 361 -329 -333 0
-329 -361 0
-333 -361 0
329 333 361 0
c gate 362 329 333 0
329 -362 0
333 -362 0
-329 -333 362 0
c gate 363 307 311 0
307 -363 0
311 -363 0
-307 -311 363 0
c gate 364 4 301 0
4 -364 0
301 -364 0
-4 -301 364 0
c gate 365 -363 -364 0
-363 -365 0
-364 -365 0
363 364 365 0
c gate 366 318 365 0
318 -366 0
365 -366 0
-318 -365 366 0
c gate 367 362 -366 0
362 -367 0
-366 -367 0
-362 366 367 0
c gate 368 -361 -367 0
-361 -368 0
-367 -368 0
361 367 368 0
c gate 369 -11 -368 0
-11 -369 0
-368 -369 0
11 368 369 0
c gate 370 -346 -366 0
-346 -370 0
-366 -370 0
346 366 370 0
c gate 371 341 366 0
341 -371 0
366 -371 0
-341 -366 371 0
c gate 372 -370 -371 0
-370 -372 0
-371 -372 0
370 371 372 0
c gate 373 -369 372 0
-369 -373 0
372 -373 0
369 -372 373 0
c gate 374 -3 -373 0
-3 -374 0
-373 -374 0
3 373 374 0
c gate 375 3 -361 0
3 -375 0
-361 -375 0
-3 361 375 0
c gate 376 362 366 0
362 -376 0
366 -376 0
-362 -366 376 0
c gate 377 -375 -376 0
-375 -377 0
-376 -377 0
375 376 377 0
c gate 378 11 -377 0
11 -378 0
-377 -378 0
-11 377 378 0
c gate 379 -353 -378 0
-353 -379 0
-378 -379 0
353 378 379 0
c gate 380 -374 379 0
-374 -380 0
379 -380 0
374 -379 380 0
c gate 381 -360 -380 0
-360 -381 0
-380 -381 0
360 380 381 0
c gate 382 360 380 0
360 -382 0
380 -382 0
-360 -380 382 0
c gate 383 -381 -382 0
-381 -383 0
-382 -383 0
381 382 383 0
c gate 384 -10 108 0
-10 -384 0
108 -384 0
10 -108 384 0
c gate 385 -277 -281 0
-277 -385 0
-281 -385 0
277 281 385 0
c gate 386 384 385 0
384 -386 0
385 -386 0
-384 -385 386 0
c gate 387 -99 -386 0
-99 -387 0
-386 -387 0
99 386 387 0
c gate 388 -324 387 0
-324 -388 0
387 -388 0
324 -387 388 0
c gate 389 -315 -388 0
-315 -389 0
-388 -389 0
315 388 389 0
c gate 390 164 389 0
164 -390 0
389 -390 0
-164 -389 390 0
c gate 391 -1 -26 0
-1 -391 0
-26 -391 0
1 26 391 0
c gate 392 -27 -391 0
-27 -392 0
-391 -392 0
27 391 392 0
c gate 393 -8 -392 0
-8 -393 0
-392 -393 0
8 392 393 0
c gate 394 8 -286 0
8 -394 0
-286 -394 0
-8 286 394 0
c gate 395 -9 -394 0
-9 -395 0
-394 -395 0
9 394 395 0
c gate 396 -393 395 0
-393 -396 0
395 -396 0
393 -395 396 0
c gate 397 -47 396 0
-47 -397 0
396 -397 0
47 -396 397 0
c gate 398 -10 -397 0
-10 -398 0
-397 -398 0
10 397 398 0
c gate 399 6 7 0
6 -399 0
7 -399 0
-6 -7 399 0
c gate 400 -43 -399 0
-43 -400 0
-399 -400 0
43 399 400 0
c gate 401 10 -400 0
10 -401 0
-400 -401 0
-10 400 401 0
c gate 402 -10 -395 0
-10 -402 0
-395 -402 0
10 395 402 0
c gate 403 -11 -402 0
-11 -403 0
-402 -403 0
11 402 403 0
c gate 404 -401 403 0
-401 -404 0
403 -404 0
401 -403 404 0
c gate 405 -398 404 0
-398 -405 0
404 -405 0
398 -404 405 0
c gate 406 396 398 0
396 -406 0
398 -406 0
-396 -398 406 0
c gate 407 -315 -406 0
-315 -407 0
-406 -407 0
315 406 407 0
c gate 408 -405 407 0
-405 -408 0
407 -408 0
405 -407 408 0
c gate 409 -11 408 0
-11 -409 0
408 -409 0
11 -408 409 0
c gate 410 -315 -409 0
-315 -410 0
-409 -410 0
315 409 410 0
c gate 411 -9 -388 0
-9 -411 0
-388 -411 0
9 388 411 0
c gate 412 9 388 0
9 -412 0
388 -412 0
-9 -388 412 0
c gate 413 -411 -412 0
-411 -413 0
-412 -413 0
411 412 413 0
c gate 414 -410 413 0
-410 -414 0
413 -414 0
410 -413 414 0
c gate 415 -390 -414 0
-390 -415 0
-414 -415 0
390 414 415 0
c gate 416 3 -415 0
3 -416 0
-415 -416 0
-3 415 416 0
c gate 417 -155 -386 0
-155 -417 0
-386 -417 0
155 386 417 0
c gate 418 351 -417 0
351 -418 0
-417 -418 0
-351 417 418 0
c gate 419 117 -408 0
117 -419 0
-408 -419 0
-117 408 419 0
c gate 420 -117 408 0
-117 -420 0
408 -420 0
117 -408 420 0
c gate 421 -419 -420 0
-419 -421 0
-420 -421 0
419 420 421 0
c gate 422 2 -388 0
2 -422 0
-388 -422 0
-2 388 422 0
c gate 423 -2 387 0
-2 -423 0
387 -423 0
2 -387 423 0
c gate 424 -422 -423 0
-422 -424 0
-423 -424 0
422 423 424 0
c gate 425 -3 -116 0
-3 -425 0
-116 -425 0
3 116 425 0
c gate 426 424 425 0
424 -426 0
425 -426 0
-424 -425 426 0
c gate 427 421 426 0
421 -427 0
426 -427 0
-421 -426 427 0
c gate 428 -418 -427 0
-418 -428 0
-427 -428 0
418 427 428 0
c gate 429 9 -428 0
9 -429 0
-428 -429 0
-9 428 429 0
c gate 430 -9 -99 0
-9 -430 0
-99 -430 0
9 99 430 0
c gate 431 -3 388 0
-3 -431 0
388 -431 0
3 -388 431 0
c gate 432 430 -431 0
430 -432 0
-431 -432 0
-430 431 432 0
c gate 433 73 388 0
73 -433 0
388 -433 0
-73 -388 433 0
c gate 434 -432 -433 0
-432 -434 0
-433 -434 0
432 433 434 0
c gate 435 410 -434 0
410 -435 0
-434 -435 0
-410 434 435 0
c gate 436 79 -424 0
79 -436 0
-424 -436 0
-79 424 436 0
c gate 437 421 436 0
421 -437 0
436 -437 0
-421 -436 437 0
c gate 438 -435 -437 0
-435 -438 0
-437 -438 0
435 437 438 0
c gate 439 -429 438 0
-429 -439 0
438 -439 0
429 -438 439 0
c gate 440 -416 439 0
-416 -440 0
439 -440 0
416 -439 440 0
c gate 441 -11 -404 0
-11 -441 0
-404 -441 0
11 404 441 0
c gate 442 423 441 0
423 -442 0
441 -442 0
-423 -441 442 0
c gate 443 -315 325 0
-315 -443 0
325 -443 0
315 -325 443 0
c gate 444 -442 443 0
-442 -444 0
443 -444 0
442 -443 444 0
c gate 445 115 388 0
115 -445 0
388 -445 0
-115 -388 445 0
c gate 446 99 -403 0
99 -446 0
-403 -446 0
-99 403 446 0
c gate 447 -445 -446 0
-445 -447 0
-446 -447 0
445 446 447 0
c gate 448 -444 447 0
-444 -448 0
447 -448 0
444 -447 448 0
c gate 449 9 -448 0
9 -449 0
-448 -449 0
-9 448 449 0
c gate 450 -315 -404 0
-315 -450 0
-404 -450 0
315 404 450 0
c gate 451 -117 450 0
-117 -451 0
450 -451 0
117 -450 451 0
c gate 452 117 -450 0
117 -452 0
-450 -452 0
-117 450 452 0
c gate 453 -424 -452 0
-424 -453 0
-452 -453 0
424 452 453 0
c gate 454 -451 453 0
-451 -454 0
453 -454 0
451 -453 454 0
c gate 455 389 -441 0
389 -455 0
-441 -455 0
-389 441 455 0
c gate 456 -3 -455 0
-3 -456 0
-455 -456 0
3 455 456 0
c gate 457 -454 456 0
-454 -457 0
456 -457 0
454 -456 457 0
c gate 458 430 -457 0
430 -458 0
-457 -458 0
-430 457 458 0
c gate 459 -449 -458 0
-449 -459 0
-458 -459 0
449 458 459 0
c gate 460 -440 459 0
-440 -460 0
459 -460 0
440 -459 460 0
c gate 461 440 -459 0
440 -461 0
-459 -461 0
-440 459 461 0
c gate 462 -134 244 0
-134 -462 0
244 -462 0
134 -244 462 0
c gate 463 134 -244 0
134 -463 0
-244 -463 0
-134 244 463 0
c gate 464 7 284 0
7 -464 0
284 -464 0
-7 -284 464 0
c gate 465 331 -464 0
331 -465 0
-464 -465 0
-331 464 465 0
c gate 466 11 -465 0
11 -466 0
-465 -466 0
-11 465 466 0
c gate 467 83 301 0
83 -467 0
301 -467 0
-83 -301 467 0
c gate 468 -173 -467 0
-173 -468 0
-467 -468 0
173 467 468 0
c gate 469 -466 468 0
-466 -469 0
468 -469 0
466 -468 469 0
c gate 470 -6 108 0
-6 -470 0
108 -470 0
6 -108 470 0
c gate 471 -175 470 0
-175 -471 0
470 -471 0
175 -470 471 0
c gate 472 -469 471 0
-469 -472 0
471 -472 0
469 -471 472 0
c gate 473 -183 -472 0
-183 -473 0
-472 -473 0
183 472 473 0
c gate 474 -463 473 0
-463 -474 0
473 -474 0
463 -473 474 0
c gate 475 -462 474 0
-462 -475 0
474 -475 0
462 -474 475 0
c gate 476 -461 475 0
-461 -476 0
475 -476 0
461 -475 476 0
c gate 477 -460 476 0
-460 -477 0
476 -477 0
460 -476 477 0
c gate 478 -383 477 0
-383 -478 0
477 -478 0
383 -477 478 0
c gate 479 -274 478 0
-274 -479 0
478 -479 0
274 -478 479 0
c gate 480 -273 479 0
-273 -480 0
479 -480 0
273 -479 480 0
c gate 481 -272 480 0
-272 -481 0
480 -481 0
272 -480 481 0
c gate 482 -271 481 0
-271 -482 0
481 -482 0
271 -481 482 0
c PO
-482 0
